branch-and-cut/resultados/B/b01.sol
82
19
7 20
7 29
21 22
28 24
47 37
22 41
27 34
36 49
33 35
21 12
18 28
20 22
18 43
41 47
29 33
20 27
20 48
36 41
43 22
