branch-and-cut/resultados/B/b01.log

Gurobi 10.0.3 (linux64) logging started Fri Dec 15 18:14:08 2023

Set parameter LogFile to value "resultados/B/b01.log"
Set parameter Cutoff to value 89
Gurobi Optimizer version 10.0.3 build v10.0.3rc0 (linux64)

CPU model: Intel(R) Core(TM) i7-8650U CPU @ 1.90GHz, instruction set [SSE2|AVX|AVX2]
Thread count: 4 physical cores, 8 logical processors, using up to 8 threads

Optimize a model with 9 rows, 63 columns and 19 nonzeros
Model fingerprint: 0xa1c82ae7
Variable types: 0 continuous, 63 integer (63 binary)
Coefficient statistics:
  Matrix range     [1e+00, 1e+00]
  Objective range  [1e+00, 1e+01]
  Bounds range     [1e+00, 1e+00]
  RHS range        [1e+00, 1e+00]
Presolve removed 5 rows and 5 columns
Presolve time: 0.00s
Presolved: 4 rows, 58 columns, 14 nonzeros
Variable types: 0 continuous, 58 integer (58 binary)

Root relaxation: objective 3.500000e+01, 4 iterations, 0.00 seconds (0.00 work units)

    Nodes    |    Current Node    |     Objective Bounds      |     Work
 Expl Unexpl |  Obj  Depth IntInf | Incumbent    BestBd   Gap | It/Node Time

     0     0   35.00000    0    -          -   35.00000      -     -    0s
     0     0   52.00000    0    -          -   52.00000      -     -    0s
     0     0   62.50000    0    4          -   62.50000      -     -    0s
     0     0   67.00000    0    6          -   67.00000      -     -    0s
     0     0   69.50000    0    4          -   69.50000      -     -    0s
     0     0   72.00000    0    -          -   72.00000      -     -    0s
     0     0   73.50000    0    6          -   73.50000      -     -    0s
     0     0   73.50000    0    6          -   73.50000      -     -    0s
     0     2   74.83333    0   14          -   74.83333      -     -    0s
*   18    16               4      85.0000000   77.55556  8.76%   8.1    0s
*   32    11               8      83.0000000   77.55556  6.56%   8.9    0s
*   50     1               6      82.0000000   81.40000  0.73%   8.9    0s

Cutting planes:
  User: 32
  MIR: 3
  Lazy constraints: 70

Explored 57 nodes (505 simplex iterations) in 0.12 seconds (0.01 work units)
Thread count was 8 (of 8 available processors)

Solution count 3: 82 83 85 

Optimal solution found (tolerance 1.00e-04)
Best objective 8.200000000000e+01, best bound 8.200000000000e+01, gap 0.0000%

User-callback calls 314, time in user-callback 0.09 sec
